Optimal - objective value -4499.00000000
     33 x_33                   1                       0
     85 x_85                   1                       0
     92 x_92                   1                       0
    267 x_267                  1                       0
    330 x_330                  1                       0
    406 x_406                  1                       0
    429 x_429                  1         29.6543574593796
    446 x_446                  1                       0
    470 x_470                  1                       0
    482 x_482                  1                       0
    488 x_488                  1                       0
    536 x_536                  1         30.8925406203841
    537 x_537                  1                     -27
    573 x_573                  1                       0
    575 x_575                  1                       0
    594 x_594                  1                       0
    664 x_664                  1                       0
    674 x_674                  1         -29.5302806499262
    697 x_697                  1                       0
    746 x_746                  1                       0
    786 x_786                  1         -33.4191285081241
    798 x_798                  1         -46.3238552437223
    819 x_819                  1                       0
    863 x_863                  1                       0
    908 x_908                  1                       0
    955 x_955                  1                       0
    976 x_976                  1                       0
    982 x_982                  1                     -21
   1017 x_1017                 1                      -4
   1033 x_1033                 1                       0
   1094 x_1094                 1                       0
   1202 x_1202                 1                       0
   1219 x_1219                 1                       0
   1234 x_1234                 1                       0
   1294 x_1294                 1                       0
   1347 x_1347                 1                       0
   1484 x_1484                 1         -1.15177252584934
   1563 x_1563                 1                       0
   1669 x_1669                 1                       0
   1707 x_1707                 1         -27.2913589364845
   1725 x_1725                 1         -49.9180206794682
   1745 x_1745                 1                       0
   1776 x_1776                 1                       0
   1857 x_1857                 1                       0
   1899 x_1899                 1                       0
   1901 x_1901                 1                       0
   1950 x_1950                 1                       0
   2002 x_2002                 1                       0
   2154 x_2154                 1                       0
   2184 x_2184                 1                       0
   2205 x_2205                 1                       0
   2265 x_2265                 1         5.50904726735597
   2287 x_2287                 1                       0
   2320 x_2320                 1         -6.86742983751847
   2328 x_2328                 1                       0
   2344 x_2344                 1                       0
   2346 x_2346                 1                       0
   2383 x_2383                 1                       0
   2417 x_2417                 1         4.71565731166912
   2431 x_2431                 1                       0
   2508 x_2508                 1                       0
   2523 x_2523                 1                       0
   2535 x_2535                 1         -21.243353028065
   2551 x_2551                 1         96.2326440177253
   2591 x_2591                 1                       0
   2683 x_2683                 1         -43.3028064992615
